data;

set I := Calories Proteins Calcium;
set J := Bread Milk Eggs Meat Cake;

param:	c	q :=
Bread	0.1	4
Milk	0.5	3
Eggs	0.12	1
Meat	0.9	2
Cake	1.3	2
;

param b :=
Calories		600
Proteins	50
Calcium		0.7
;

param a (tr):
	Calories	Proteins Calcium :=
Bread	30	5	0.02
Milk	50	15	0.15
Eggs	150	30	0.05
Meat	180	90	0.08
Cake	400	70	0.01
;
